\ This file was automatically generated by Zimpl
\ set indice := {1, 2, 3};
\ set tipoChapa := {1, 2, 3};
\ param minutosPrensarChapa[tipoChapa] := <1> 1, <2> 1, <3> 2;
\ param minutosEsmaltarChapa[tipoChapa] := <1> 3, <2> 4.5, <3> 1;
\ param lucroUnitario[tipoChapa] := <1> 5, <2> 7 , <3> 8;
\ param  minutosUsoPrensa  := 2000;
\ param minutosUsoEsmaltagem := 8000;
\ var quantidadeChapaProduzir[tipoChapa] >= 0;
\ maximize lucro : sum <i> in indice : lucroUnitario[i] * quantidadeChapaProduzir[i];
\ subto  limiteMinutosPrensa:     sum <t> in tipoChapa : minutosPrensarChapa[t] * quantidadeChapaProduzir[t] <= minutosUsoPrens
\ a;
\ subto minutosUsoEsmaltagem:     sum <t> in tipoChapa : minutosEsmaltarChapa[t] * quantidadeChapaProduzir[t] <= minutosUsoEsma
\ ltagem;
\Problem name: .\file.zpl
Maximize
 lucro:  +5 quantidadeChap@0 +7 quantidadeChap@1 +8 quantidadeChap@2
Subject to
 limiteMinutosP@0:
  +2 quantidadeChap@2 + quantidadeChap@1 + quantidadeChap@0 <= 2000
 minutosUsoEsma@1:
  + quantidadeChap@2 +4.5 quantidadeChap@1 +3 quantidadeChap@0 <= 8000
Bounds
 0 <= quantidadeChap@0 <= +inf
 0 <= quantidadeChap@1 <= +inf
 0 <= quantidadeChap@2 <= +inf
End
